Traveling Salesman Problem/TSP_generados/Aleatorio1621103698_17.tsp
NAME: Aleatorio1621103698_17.tsp
COMMENT: Randomly generated scenario
TYPE: TSP
DIMENSION: 17
EDGE_WEIGHT_TYPE: ATT
NODE_COORD_SECTION
1 45.72 22.56
2 49.52 39.05
3 1.97 47.38
4 12.42 17.42
5 34.35 30.67
6 11.21 48.04
7 20.24 7.01
8 45.66 42.86
9 41.4 11.39
10 19.65 22.76
11 17.23 25.2
12 13.45 23.71
13 7.93 29.52
14 35.99 7.79
15 28.42 5.38
16 39.48 20.5
17 26.02 44.75
