Traveling Salesman Problem/TSP_generados/Aleatorio1621103698_17.opt.tour
NAME: Aleatorio1621103698_17.opt.tour
COMMENT: Optimal solution for Aleatorio1621103698_17 (174.78369435805834)
TYPE: TOUR
DIMENSION: 17
TOUR_SECTION
1 16 9 14 15 7 4 10 11 12 13 3 6 17 5 8 2
-1
EOF
